# Node Net
3870   1
 70   1
8070   1
2970   2
  7   2
7560   2
 14   3
 22   3
3420   3
2611   4
4951   4
5131   4
7471   5
7111   5
 38   5
8024   6
990   6
8057   6
8079   7
3690   7
 29   7
 77   8
8092   8
 33   9
 24   9
3060  10
1441  10
2250  11
1890  11
1351  12
451  12
